(declare-fun strlen_140_64 () (_ BitVec 64))
(declare-fun args_3_8 () (_ BitVec 8))
(assert (and (= (ite (= #x00 args_3_8) #x07fffffffffeffd6 #x07fffffffffeffd7)
        (bvadd #x07fffffffffeffd6 strlen_140_64))))
(maximize (bvadd strlen_140_64 #x0000000000000001))
(check-sat)